1649055600
1649073600
1649142000
1649160000
1649228400
1649246400
1649314800
1649332800
1649401200
1649412900
1649416500
1649422800
1649660400
1649678400
1649746800
1649764800
1649833200
1649851200
1649919600
1649937600
1650351600
1650369600
1650438000
1650456000
1650524400
1650542400
1650610800
1650621600
1650625200
1650628800
1650628800
1650632400
1650870000
1650888000
1650956400
1650974400
1651042800
1651060800
1651129200
1651147200
1651215600
1651226400
1651230000
1651237200
